/*********************************************
 * OPL 20.1.0.0 Data
 * Author: anton
 * Creation Date: 19 nov 2022 at 16:09:22
 *********************************************/

 
 premi = {Lenzuola, Tazzine, Ferro, Asciugamani};
 
 tipo = {Senza, Con};
 
 punti = [[2100, 1100]
 		 [950, 500]
 		 [2450, 1250]
 		 [850, 450]];
 		 
 denaro = [10, 4.5, 12, 4];
 
 decis = [2, 3, 1, 3];